NAME : H-n2-k2
COMMENT : (Hackathon EMTU)
TYPE : CVRP
DIMENSION : 2
EDGE_WEIGHT_TYPE : EUC_2D
CAPACITY : 10000
NODE_COORD_SECTION
1 -23.99606073744142 -46.408964285664695
2 -23.99634619050117 -46.408830682247945
DEMAND_SECTION
1 02 1
DEPOT_SECTION
1
-1
EOF